70
1 0 8
2 1 8
3 0 5
3 2 8
4 3 8
5 0 9
5 3 7
6 0 5
6 1 6
6 2 7
7 1 3
7 4 2
7 5 2
8 3 6
8 4 9
8 6 6
8 7 4
9 1 6
9 3 1
9 5 8
10 0 5
10 4 8
10 5 9
10 6 2
10 8 7
10 9 1
11 0 7
11 1 2
11 2 4
11 3 9
11 8 6
11 10 8
12 0 4
12 6 7
12 8 9
12 10 4
12 11 9
13 2 8
13 4 5
13 5 6
13 6 8
13 8 10
13 9 7
13 11 6
14 4 9
14 5 2
14 8 7
14 9 2
14 10 8
14 11 5
14 12 5
15 0 8
15 3 6
15 4 7
15 7 8
15 8 5
15 10 8
15 13 8
16 0 6
16 1 9
16 2 4
16 3 5
16 4 3
16 6 10
16 8 1
16 9 1
16 11 9
16 14 2
16 15 1
17 0 7
17 1 9
17 2 9
17 3 8
17 4 9
17 5 6
17 6 6
17 7 2
17 8 5
17 9 9
17 11 7
17 14 10
18 0 3
18 3 4
18 5 1
18 7 7
18 12 10
18 13 7
18 15 1
18 16 4
19 0 4
19 1 6
19 2 2
19 3 9
19 4 4
19 5 10
19 8 6
19 9 5
19 12 7
19 15 7
19 16 6
20 1 6
20 2 9
20 3 8
20 4 5
20 5 10
20 6 8
20 8 2
20 12 6
20 13 8
20 15 2
20 16 6
20 19 10
21 0 3
21 1 1
21 7 1
21 9 8
21 10 2
21 12 9
21 16 6
21 17 10
21 18 9
21 19 1
22 2 7
22 5 9
22 8 3
22 9 7
22 10 6
22 12 4
22 15 6
22 18 2
22 19 2
22 21 6
23 0 8
23 4 1
23 10 6
23 12 8
23 14 7
23 15 8
23 17 10
23 19 7
23 20 7
23 21 2
23 22 10
24 1 9
24 2 2
24 3 4
24 4 9
24 6 9
24 12 1
24 14 3
24 16 2
24 17 9
24 19 1
24 22 8
25 1 6
25 4 7
25 5 6
25 6 1
25 13 2
25 16 5
25 17 9
25 18 8
25 19 8
25 20 2
26 0 5
26 1 10
26 3 1
26 5 4
26 7 7
26 12 5
26 14 7
26 18 6
26 19 5
26 21 10
26 24 9
27 1 8
27 5 10
27 6 4
27 9 1
27 13 1
27 14 4
27 15 2
27 24 3
27 25 3
28 2 4
28 3 10
28 5 9
28 8 10
28 9 9
28 11 8
28 12 8
28 13 1
28 16 5
28 18 9
28 21 10
28 23 6
28 26 4
28 27 10
29 1 8
29 2 3
29 5 8
29 6 8
29 8 6
29 9 9
29 14 5
29 17 6
29 19 6
29 21 10
29 22 2
29 23 8
29 25 7
29 28 10
30 1 9
30 2 3
30 5 9
30 7 1
30 10 1
30 11 1
30 12 1
30 13 8
30 14 10
30 15 10
30 18 2
30 19 6
30 23 6
30 26 2
30 27 7
30 28 4
30 29 4
31 0 3
31 1 8
31 2 7
31 4 10
31 8 9
31 10 8
31 11 6
31 14 10
31 16 4
31 17 5
31 19 8
31 22 2
31 26 4
31 27 7
31 29 9
32 0 5
32 1 2
32 2 8
32 5 8
32 7 6
32 8 3
32 9 4
32 10 4
32 13 6
32 14 5
32 16 3
32 19 8
32 20 10
32 21 3
32 22 7
32 24 2
32 26 4
32 28 9
32 29 2
32 31 5
33 3 1
33 10 2
33 14 2
33 16 6
33 19 4
33 20 2
33 24 7
33 25 9
33 26 7
33 27 6
33 28 1
33 29 1
33 30 8
33 31 1
34 0 3
34 1 4
34 8 8
34 9 1
34 10 7
34 12 4
34 14 9
34 16 5
34 20 6
34 22 6
34 23 9
34 24 9
34 25 8
34 32 8
34 33 1
35 0 10
35 1 2
35 2 5
35 3 3
35 4 4
35 5 2
35 6 5
35 8 5
35 9 5
35 10 7
35 12 2
35 13 6
35 16 7
35 17 3
35 20 7
35 23 2
35 24 9
35 25 4
35 32 8
35 34 1
36 0 8
36 1 7
36 2 10
36 3 1
36 4 4
36 5 4
36 6 10
36 7 6
36 8 7
36 9 9
36 12 6
36 13 2
36 17 6
36 18 2
36 20 3
36 21 1
36 22 7
36 24 6
36 26 1
36 28 1
36 29 9
36 32 6
36 33 1
37 1 7
37 2 6
37 4 10
37 5 10
37 11 7
37 12 5
37 13 7
37 15 5
37 16 8
37 17 6
37 19 5
37 20 8
37 21 6
37 27 4
37 28 9
37 31 2
37 32 9
37 33 9
37 34 7
37 36 6
38 0 4
38 2 8
38 3 10
38 4 4
38 6 6
38 7 6
38 9 6
38 12 4
38 13 10
38 14 1
38 16 7
38 19 4
38 20 4
38 21 7
38 22 8
38 23 4
38 24 7
38 25 4
38 26 2
38 28 1
38 31 6
38 32 5
38 33 8
38 34 7
38 35 4
38 36 8
39 1 8
39 2 3
39 5 7
39 6 7
39 8 1
39 9 4
39 10 10
39 11 3
39 13 5
39 15 8
39 20 8
39 22 5
39 23 4
39 26 8
39 27 1
39 28 1
39 29 1
39 30 7
39 32 2
39 35 10
39 36 9
39 37 2
39 38 6
40 0 1
40 1 9
40 2 9
40 3 6
40 6 5
40 8 5
40 9 10
40 11 8
40 12 6
40 14 9
40 15 1
40 16 5
40 17 2
40 18 5
40 19 2
40 20 7
40 22 4
40 23 7
40 25 1
40 26 3
40 27 1
40 28 3
40 29 6
40 30 10
40 32 1
40 33 1
40 35 5
40 38 9
40 39 5
41 2 6
41 4 9
41 5 7
41 6 1
41 10 2
41 13 6
41 16 2
41 17 2
41 18 7
41 21 9
41 24 4
41 25 6
41 26 7
41 28 6
41 29 3
41 31 4
41 33 1
41 35 8
41 36 7
41 38 10
41 39 4
42 0 3
42 4 1
42 5 8
42 7 1
42 11 8
42 12 8
42 13 1
42 15 9
42 16 9
42 17 2
42 21 10
42 26 4
42 27 9
42 28 2
42 30 7
42 31 5
42 32 1
42 34 2
42 36 2
42 38 3
42 39 10
42 41 10
43 0 9
43 2 6
43 5 2
43 6 7
43 7 3
43 8 1
43 10 7
43 11 10
43 13 7
43 19 3
43 20 10
43 21 3
43 22 2
43 23 8
43 24 10
43 26 5
43 27 6
43 28 4
43 30 2
43 31 2
43 32 6
43 33 3
43 34 5
43 35 8
43 36 6
43 38 7
43 40 8
43 42 4
44 1 3
44 2 6
44 5 5
44 6 4
44 8 5
44 10 4
44 11 9
44 12 10
44 14 8
44 22 6
44 24 2
44 25 3
44 27 2
44 30 6
44 32 4
44 34 10
44 35 2
44 36 1
44 38 9
44 40 10
45 0 8
45 2 1
45 3 2
45 6 4
45 7 3
45 8 4
45 9 4
45 10 7
45 11 2
45 12 3
45 14 1
45 15 6
45 16 7
45 17 2
45 18 7
45 20 1
45 21 8
45 22 6
45 24 10
45 25 10
45 27 3
45 30 10
45 32 2
45 34 5
45 36 10
45 39 2
45 40 1
45 42 1
45 43 2
46 0 1
46 1 9
46 3 4
46 4 1
46 5 5
46 7 8
46 9 3
46 15 4
46 20 2
46 22 1
46 23 7
46 24 3
46 29 5
46 31 9
46 32 4
46 34 1
46 35 8
46 38 8
46 41 4
46 42 9
46 45 6
47 0 10
47 2 9
47 3 3
47 10 2
47 14 9
47 18 3
47 20 8
47 23 8
47 25 3
47 26 2
47 27 6
47 28 6
47 30 10
47 31 3
47 35 6
47 36 9
47 43 1
47 44 7
47 45 5
48 0 7
48 1 4
48 2 2
48 4 5
48 5 4
48 6 1
48 10 5
48 14 8
48 16 10
48 17 8
48 19 10
48 21 5
48 23 6
48 24 1
48 25 3
48 26 7
48 29 4
48 30 7
48 35 7
48 36 1
48 37 7
48 39 7
48 40 6
48 41 8
48 42 7
48 44 1
48 45 3
48 47 6
49 0 9
49 1 3
49 2 7
49 3 9
49 4 4
49 6 1
49 7 9
49 8 10
49 9 3
49 12 8
49 15 8
49 20 4
49 22 5
49 27 9
49 28 6
49 29 10
49 31 7
49 34 6
49 35 4
49 37 6
49 39 7
49 43 4
49 44 4
49 47 1
50 0 9
50 1 9
50 2 6
50 3 8
50 4 4
50 5 9
50 9 1
50 12 3
50 14 6
50 15 6
50 17 1
50 24 4
50 26 2
50 27 9
50 32 9
50 36 10
50 38 3
50 39 10
50 41 3
50 44 10
50 45 9
50 46 10
50 49 9
51 5 2
51 6 6
51 7 8
51 9 4
51 10 6
51 13 4
51 14 1
51 16 10
51 20 2
51 21 8
51 23 9
51 28 1
51 30 9
51 31 10
51 32 10
51 33 6
51 37 10
51 40 1
51 42 6
51 47 10
51 50 8
52 0 5
52 1 3
52 4 10
52 5 7
52 10 5
52 13 5
52 15 4
52 18 6
52 19 8
52 21 5
52 22 8
52 23 2
52 27 3
52 31 9
52 32 2
52 36 1
52 39 3
52 40 7
52 42 7
52 44 8
52 46 1
52 48 3
52 49 7
52 50 7
52 51 3
53 0 7
53 1 1
53 4 8
53 7 8
53 9 4
53 11 2
53 12 7
53 13 9
53 15 6
53 16 6
53 19 9
53 20 9
53 21 5
53 22 10
53 25 7
53 26 7
53 28 4
53 29 3
53 31 8
53 33 1
53 34 5
53 35 6
53 36 1
53 37 3
53 38 5
53 39 3
53 40 5
53 41 6
53 43 10
53 44 8
53 45 7
53 46 10
53 48 2
53 50 10
53 51 3
53 52 1
54 2 3
54 4 2
54 6 2
54 9 6
54 11 9
54 12 5
54 13 9
54 15 3
54 16 5
54 19 5
54 22 8
54 25 9
54 26 3
54 27 2
54 28 7
54 30 2
54 32 6
54 35 10
54 40 6
54 44 4
54 47 7
54 49 9
55 3 3
55 7 1
55 8 5
55 9 7
55 10 3
55 12 4
55 15 3
55 16 7
55 23 8
55 24 5
55 26 3
55 27 8
55 28 9
55 32 6
55 33 6
55 34 10
55 36 5
55 37 1
55 40 2
55 44 8
55 45 2
55 46 4
55 48 8
55 53 3
55 54 9
56 2 4
56 3 10
56 4 1
56 7 4
56 8 3
56 12 6
56 13 10
56 14 3
56 18 9
56 19 8
56 20 2
56 21 1
56 25 1
56 26 6
56 27 6
56 29 7
56 30 6
56 32 8
56 33 1
56 34 10
56 36 8
56 37 5
56 38 10
56 41 9
56 42 5
56 44 4
56 45 2
56 48 4
56 49 2
56 51 9
56 55 7
57 0 3
57 1 6
57 2 5
57 3 5
57 6 3
57 7 6
57 8 7
57 10 9
57 12 7
57 13 5
57 14 2
57 15 2
57 16 1
57 17 2
57 18 5
57 20 10
57 25 9
57 27 5
57 29 2
57 34 3
57 36 10
57 42 5
57 43 3
57 46 10
57 47 7
57 48 5
57 49 4
57 50 2
57 51 6
57 54 6
57 55 6
58 5 8
58 6 7
58 10 8
58 11 8
58 14 10
58 15 8
58 17 10
58 20 5
58 25 6
58 26 1
58 27 6
58 30 9
58 31 7
58 32 1
58 35 8
58 36 1
58 37 2
58 39 7
58 40 6
58 43 6
58 44 6
58 46 6
58 49 3
58 50 4
58 51 10
58 52 4
58 53 3
58 54 7
58 55 7
58 57 3
59 1 10
59 2 3
59 3 3
59 4 7
59 6 3
59 7 9
59 8 6
59 9 10
59 10 4
59 11 10
59 15 7
59 21 9
59 22 7
59 24 4
59 26 7
59 28 3
59 33 2
59 34 2
59 35 3
59 36 8
59 37 3
59 38 9
59 39 3
59 41 10
59 42 1
59 46 10
59 47 4
59 50 2
59 51 4
59 52 4
59 54 2
59 57 5
59 58 9
60 1 3
60 2 9
60 5 3
60 6 10
60 7 9
60 10 7
60 11 2
60 14 1
60 24 7
60 28 6
60 31 5
60 34 7
60 37 5
60 39 6
60 45 1
60 46 7
60 47 6
60 48 4
60 50 5
60 51 6
60 54 4
60 55 2
60 57 8
60 59 10
61 1 2
61 8 3
61 9 6
61 10 9
61 11 7
61 12 7
61 13 2
61 17 1
61 19 8
61 20 2
61 26 5
61 29 2
61 30 2
61 31 9
61 32 4
61 33 3
61 34 4
61 35 7
61 36 9
61 39 7
61 41 1
61 43 10
61 46 7
61 47 1
61 49 10
61 50 10
61 52 7
61 53 3
61 54 9
61 56 9
62 1 7
62 2 2
62 5 5
62 7 7
62 8 2
62 9 9
62 10 5
62 11 6
62 17 10
62 18 8
62 20 10
62 21 1
62 26 3
62 28 8
62 30 10
62 31 6
62 32 7
62 33 5
62 34 9
62 36 5
62 37 2
62 39 5
62 41 3
62 44 10
62 47 1
62 49 2
62 52 7
62 53 2
62 54 10
62 56 10
62 57 9
62 58 10
62 61 2
63 0 5
63 1 7
63 3 2
63 4 5
63 6 4
63 8 5
63 11 3
63 12 10
63 14 7
63 15 5
63 16 9
63 18 8
63 19 7
63 21 5
63 23 4
63 24 6
63 25 3
63 27 5
63 28 10
63 29 4
63 30 1
63 31 3
63 33 10
63 34 2
63 37 1
63 41 9
63 42 2
63 43 10
63 46 1
63 48 1
63 50 3
63 52 4
63 53 10
63 54 7
63 60 4
64 0 6
64 4 9
64 5 9
64 9 10
64 10 9
64 11 5
64 16 8
64 19 8
64 20 5
64 23 8
64 24 5
64 25 5
64 26 5
64 27 3
64 28 7
64 29 10
64 32 10
64 33 1
64 34 9
64 36 6
64 38 3
64 43 10
64 46 2
64 49 1
64 52 10
64 53 6
64 58 2
64 59 9
64 60 3
64 62 1
65 4 7
65 7 4
65 9 5
65 10 10
65 12 9
65 14 10
65 15 10
65 16 2
65 18 8
65 22 6
65 24 7
65 25 5
65 26 6
65 27 5
65 29 5
65 31 1
65 33 6
65 34 10
65 37 2
65 39 1
65 40 8
65 45 1
65 49 6
65 53 9
65 54 3
65 55 3
65 57 4
65 58 4
65 61 2
65 62 10
66 1 4
66 3 1
66 5 8
66 7 1
66 10 3
66 11 9
66 12 7
66 13 7
66 16 8
66 17 7
66 23 7
66 26 5
66 29 1
66 33 1
66 36 1
66 38 10
66 40 10
66 44 3
66 45 8
66 47 7
66 48 7
66 50 5
66 52 4
66 54 4
66 57 4
66 60 1
67 3 9
67 6 6
67 8 10
67 10 2
67 11 2
67 12 4
67 14 1
67 16 10
67 18 10
67 19 3
67 21 2
67 24 1
67 26 1
67 27 1
67 28 10
67 30 6
67 33 10
67 34 2
67 39 9
67 41 8
67 43 5
67 44 3
67 45 1
67 50 10
67 51 4
67 53 3
67 54 1
67 57 5
67 59 3
67 62 1
67 63 7
67 64 8
68 1 6
68 4 4
68 6 5
68 7 5
68 10 2
68 12 2
68 13 6
68 14 7
68 15 3
68 21 4
68 22 6
68 25 2
68 26 1
68 27 2
68 29 5
68 30 2
68 32 4
68 33 1
68 38 6
68 39 8
68 40 6
68 43 5
68 44 6
68 45 3
68 47 10
68 48 4
68 49 8
68 51 2
68 53 9
68 54 3
68 55 10
68 56 4
68 59 6
68 60 4
68 62 2
68 63 2
68 64 9
68 66 6
69 2 6
69 4 5
69 6 1
69 13 1
69 14 4
69 15 7
69 16 9
69 18 5
69 19 3
69 20 4
69 21 8
69 24 10
69 25 3
69 27 6
69 30 8
69 32 3
69 33 2
69 38 6
69 41 3
69 43 8
69 45 10
69 46 8
69 51 6
69 53 2
69 54 3
69 55 10
69 56 8
69 57 2
69 59 9
69 60 7
69 61 5
69 62 1
69 65 9
69 66 4
